//Dat File

outFile="MPVSBPP_SET1_IT200_ITV1_NT2_TS3_WT1_VT1_REP2";
m=200;
o=102;
p=3;
numVTypes=3;

demand = [1, 8, 11, 8, 7, 5, 9, 10, 9, 4, 4, 4, 4, 6, 6, 9, 6, 8, 7, 3, 11, 10, 1, 3, 2, 5, 11, 11, 3, 11, 11, 1, 9, 11, 4, 3, 8, 9, 10, 11, 1, 6, 9, 5, 8, 9, 6, 10, 9, 7, 8, 11, 8, 4, 4, 8, 8, 8, 6, 7, 10, 7, 1, 4, 5, 3, 2, 9, 4, 5, 10, 9, 10, 8, 6, 10, 4, 3, 5, 4, 2, 5, 2, 8, 7, 1, 3, 9, 4, 10, 6, 2, 7, 7, 2, 6, 6, 10, 4, 10, 9, 9, 2, 6, 9, 7, 4, 3, 2, 6, 9, 7, 2, 4, 11, 7, 5, 10, 3, 3, 2, 9, 10, 5, 4, 11, 5, 11, 10, 6, 8, 6, 6, 7, 6, 8, 5, 1, 4, 10, 7, 7, 7, 1, 8, 11, 6, 7, 10, 3, 19, 17, 18, 15, 15, 18, 12, 15, 13, 13, 14, 19, 15, 14, 19, 16, 18, 12, 18, 13, 16, 19, 12, 18, 12, 19, 18, 17, 15, 18, 16, 16, 15, 19, 18, 12, 14, 16, 15, 15, 13, 12, 19, 17, 12, 12, 18, 18, 18, 16];
Depot_Cap = [30000, 30000, 30000];
Tarif = [10, 3, 7];
VeicVolume = [100, 150, 200];
VeicCost = [100, 120, 140];
VeicType = [1, 1, 1, 1, 1, 1, 1, 1, 1, 1, 1, 1, 1, 1, 1, 1, 1, 1, 1, 1, 1, 1, 1, 1, 1, 1, 1, 1, 1, 1, 1, 1, 1, 1, 2, 2, 2, 2, 2, 2, 2, 2, 2, 2, 2, 2, 2, 2, 2, 2, 2, 2, 2, 2, 2, 2, 2, 2, 2, 2, 2, 2, 2, 2, 2, 2, 2, 2, 3, 3, 3, 3, 3, 3, 3, 3, 3, 3, 3, 3, 3, 3, 3, 3, 3, 3, 3, 3, 3, 3, 3, 3, 3, 3, 3, 3, 3, 3, 3, 3, 3, 3];
Elect_vehicle = [[70, 100, 30], [70, 100, 30], [70, 100, 30], [70, 100, 30], [70, 100, 30], [70, 100, 30], [70, 100, 30], [70, 100, 30], [70, 100, 30], [70, 100, 30], [70, 100, 30], [70, 100, 30], [70, 100, 30], [70, 100, 30], [70, 100, 30], [70, 100, 30], [70, 100, 30], [70, 100, 30], [70, 100, 30], [70, 100, 30], [70, 100, 30], [70, 100, 30], [70, 100, 30], [70, 100, 30], [70, 100, 30], [70, 100, 30], [70, 100, 30], [70, 100, 30], [70, 100, 30], [70, 100, 30], [70, 100, 30], [70, 100, 30], [70, 100, 30], [70, 100, 30], [80, 120, 30], [80, 120, 30], [80, 120, 30], [80, 120, 30], [80, 120, 30], [80, 120, 30], [80, 120, 30], [80, 120, 30], [80, 120, 30], [80, 120, 30], [80, 120, 30], [80, 120, 30], [80, 120, 30], [80, 120, 30], [80, 120, 30], [80, 120, 30], [80, 120, 30], [80, 120, 30], [80, 120, 30], [80, 120, 30], [80, 120, 30], [80, 120, 30], [80, 120, 30], [80, 120, 30], [80, 120, 30], [80, 120, 30], [80, 120, 30], [80, 120, 30], [80, 120, 30], [80, 120, 30], [80, 120, 30], [80, 120, 30], [80, 120, 30], [80, 120, 30], [90, 140, 40], [90, 140, 40], [90, 140, 40], [90, 140, 40], [90, 140, 40], [90, 140, 40], [90, 140, 40], [90, 140, 40], [90, 140, 40], [90, 140, 40], [90, 140, 40], [90, 140, 40], [90, 140, 40], [90, 140, 40], [90, 140, 40], [90, 140, 40], [90, 140, 40], [90, 140, 40], [90, 140, 40], [90, 140, 40], [90, 140, 40], [90, 140, 40], [90, 140, 40], [90, 140, 40], [90, 140, 40], [90, 140, 40], [90, 140, 40], [90, 140, 40], [90, 140, 40], [90, 140, 40], [90, 140, 40], [90, 140, 40], [90, 140, 40], [90, 140, 40]];